************************************************************************
file with basedata            : cr429_.bas
initial value random generator: 472318293
************************************************************************
projects                      :  1
jobs (incl. supersource/sink ):  18
horizon                       :  129
RESOURCES
  - renewable                 :  4   R
  - nonrenewable              :  2   N
  - doubly constrained        :  0   D
************************************************************************
PROJECT INFORMATION:
pronr.  #jobs rel.date duedate tardcost  MPM-Time
    1     16      0       29       15       29
************************************************************************
PRECEDENCE RELATIONS:
jobnr.    #modes  #successors   successors
   1        1          3           2   3   4
   2        3          3           7   8  17
   3        3          3           8   9  13
   4        3          3           5   6  17
   5        3          3           9  11  13
   6        3          3           8  10  16
   7        3          3           9  12  16
   8        3          2          11  14
   9        3          1          14
  10        3          2          11  12
  11        3          1          15
  12        3          1          13
  13        3          1          14
  14        3          1          15
  15        3          1          18
  16        3          1          18
  17        3          1          18
  18        1          0        
************************************************************************
REQUESTS/DURATIONS:
jobnr. mode duration  R 1  R 2  R 3  R 4  N 1  N 2
------------------------------------------------------------------------
  1      1     0       0    0    0    0    0    0
  2      1     1       8    3    9    7    0    7
         2     3       7    2    9    6    3    0
         3     9       6    2    8    5    1    0
  3      1     3       9    7    2    7    0    7
         2     3       9    7    2    7    9    0
         3     9       8    6    2    7    0    7
  4      1     2      10    3    9    6    0    5
         2     2       8    2    9    6    6    0
         3     5       6    1    7    5    4    0
  5      1     2       6    5    9    7    7    0
         2     6       5    5    9    7    3    0
         3     9       2    4    8    7    0    9
  6      1     4       9    3    9    6    5    0
         2     8       7    3    9    6    0    7
         3    10       5    2    8    6    0    6
  7      1     1       7    9    2   10    0    4
         2     2       4    6    2    9    8    0
         3     7       3    5    1    8    0    3
  8      1     1       1    5    6    7    0    5
         2     1       1    5    4    6    7    0
         3    10       1    4    2    4    0    5
  9      1     4       5    6    4    7   10    0
         2     5       3    5    3    6   10    0
         3     6       2    4    3    6    0    7
 10      1     4       4    8    9    8    9    0
         2     8       3    8    6    8    7    0
         3    10       3    7    5    8    5    0
 11      1     1       7    2    4    6    5    0
         2     1       7    3    3    6    5    0
         3     2       6    2    3    5    0    8
 12      1     2       7    2    8   10    4    0
         2     8       5    2    7    9    4    0
         3    10       4    2    7    9    0    3
 13      1     6       7    4    6    2    6    0
         2     7       5    4    5    2    0    4
         3     8       3    3    4    1    1    0
 14      1     7       6    8    4    4    0    5
         2     9       3    6    3    3    0    4
         3    10       3    2    3    3    2    0
 15      1     4       6    8    7    5    2    0
         2     5       6    8    4    3    1    0
         3     9       5    6    3    3    0    6
 16      1     2       6    9    3    9    1    0
         2     2       8    9    3    7    2    0
         3     7       3    8    3    5    0    8
 17      1     1       6    7    5    9    0    7
         2     4       4    7    4    5    1    0
         3     8       2    7    1    2    0    6
 18      1     0       0    0    0    0    0    0
************************************************************************
RESOURCEAVAILABILITIES:
  R 1  R 2  R 3  R 4  N 1  N 2
   14   13   12   15   86   92
************************************************************************
